Route #1: 7 12 58 18 29 44 
Route #2: 28 15 36 27 22 8 41 37 51 32 40 45 
Route #3: 26 30 16 31 4 54 46 
Route #4: 11 57 53 14 62 25 33 43 
Route #5: 52 24 38 6 5 35 
Route #6: 42 61 17 9 47 48 64 3 59 55 10 
Route #7: 49 63 34 
Route #8: 21 20 60 56 50 2 13 
Route #9: 39 23 19 
cost 1496.15
